0 3815
2 3800
4 3789
6 3762
7 3720
14 3657
15 3639
19 3591
27 3574
32 3572
34 3543
37 3535
39 3534
48 3530
51 3529
71 3522
73 3509
95 3497
97 3483
103 3471
119 3439
145 3435
155 3418
160 3410
182 3407
189 3401
190 3383
219 3378
247 3366
292 3349
296 3339
313 3336
386 3324
451 3320
498 3317
500 3316
590 3296
593 3289
599 3286
963 3284
1002 3281
1003 3261
1087 3253
1099 3250
1157 3246
1264 3245
1515 3244
1999 3238
2019 3233
2056 3231
2063 3226
2155 3224
2232 3214
2465 3211
